c 
p cnf 107 180
1 6 21 0
1 6 -21 0
-6 15 19 0
-14 22 23 0
-14 22 -23 0
-14 -22 23 0
-14 -22 -23 0
3 -15 24 0
-24 -8 25 0
-25 20 7 0
6 9 26 0
-26 14 27 0
-27 -7 -1 0
-13 4 28 0
-28 -8 17 0
10 -6 9 0
15 -3 29 0
15 -3 -29 0
9 -4 30 0
9 -4 -30 0
-5 16 13 0
-18 5 31 0
-31 -16 8 0
4 5 32 0
4 5 -32 0
10 4 33 0
-33 -12 34 0
-34 -7 -20 0
-7 -9 35 0
-35 -12 1 0
6 18 15 0
-7 18 36 0
-36 3 -16 0
-4 -13 37 0
-4 -13 -37 0
11 38 39 0
11 38 -39 0
11 -38 39 0
11 -38 -39 0
-4 -15 40 0
-40 3 -10 0
-5 19 41 0
-5 19 -41 0
-13 20 9 0
19 17 42 0
-42 7 43 0
-43 12 -9 0
-16 44 45 0
-16 44 -45 0
-16 -44 45 0
-16 -44 -45 0
-3 7 4 0
7 -19 46 0
-46 -11 47 0
-47 -14 12 0
-18 -5 48 0
-18 -5 -48 0
13 -15 49 0
-49 12 -8 0
12 -9 50 0
-50 1 51 0
-51 13 -3 0
10 1 52 0
10 1 -52 0
12 -9 53 0
12 -9 -53 0
-8 4 -16 0
5 4 54 0
-54 16 1 0
19 12 17 0
9 3 55 0
-55 4 -2 0
-10 7 17 0
19 -7 56 0
-56 -6 13 0
-19 -5 14 0
-10 -8 57 0
-10 -8 -57 0
1 14 58 0
-58 -17 -11 0
-2 -9 59 0
-59 6 -8 0
15 -2 60 0
-60 -1 -8 0
-19 7 61 0
-61 -2 62 0
-62 -11 -9 0
-14 -19 12 0
17 63 64 0
17 63 -64 0
17 -63 64 0
17 -63 -64 0
12 -5 65 0
-65 -8 66 0
-66 15 -17 0
-14 -11 67 0
-67 -2 68 0
-68 -7 15 0
9 69 70 0
9 69 -70 0
9 -69 70 0
9 -69 -70 0
-1 -20 71 0
-71 -13 10 0
-6 72 73 0
-6 72 -73 0
-6 -72 73 0
-6 -72 -73 0
-3 -14 74 0
-3 -14 -74 0
-17 13 75 0
-75 -14 -15 0
15 17 -14 0
-13 18 -6 0
1 -7 -4 0
16 5 -19 0
20 -14 76 0
-76 5 -11 0
5 77 78 0
5 77 -78 0
5 -77 78 0
5 -77 -78 0
-5 -7 79 0
-79 -15 -4 0
-5 80 81 0
-5 80 -81 0
-5 -80 81 0
-5 -80 -81 0
-12 82 83 0
-12 82 -83 0
-12 -82 83 0
-12 -82 -83 0
-6 18 84 0
-84 5 -16 0
12 -2 85 0
12 -2 -85 0
13 10 86 0
-86 15 87 0
-87 -4 -17 0
15 -3 88 0
-88 -8 89 0
-89 -5 -6 0
-6 -10 90 0
-90 3 -8 0
-7 91 92 0
-7 91 -92 0
-7 -91 92 0
-7 -91 -92 0
-12 93 94 0
-12 93 -94 0
-12 -93 94 0
-12 -93 -94 0
7 19 1 0
-11 95 96 0
-11 95 -96 0
-11 -95 96 0
-11 -95 -96 0
1 12 14 0
17 -14 97 0
-97 9 -8 0
-12 10 98 0
-12 10 -98 0
1 -2 19 0
-9 19 99 0
-9 19 -99 0
14 100 101 0
14 100 -101 0
14 -100 101 0
14 -100 -101 0
7 -13 102 0
-102 8 103 0
-103 4 -9 0
9 -15 104 0
-104 17 13 0
-15 -20 105 0
-105 -14 -1 0
20 2 106 0
20 2 -106 0
-2 15 107 0
-2 15 -107 0
